var 1..3: V_644:: output_var;
var 1..3: V_672:: output_var;
var 1..5: V_700:: output_var;
array [1..3] of int: X_INTRODUCED_0_ = [1,1,-1];
constraint int_lin_lt(X_INTRODUCED_0_,[V_644,V_672,V_700],0);
solve satisfy;
